minizinc/sudoku_problems2/sudoku_p58.dzn
%
% sudoku_p58.dzn
% See http://www.hakank.org/minizinc/sudoku_gcc.mzn
% 
% This problem is problem 58 from
% Gecode's sudoku.cpp
% http://www.gecode.org/gecode-doc-latest/sudoku_8cpp-source.html
% 
x = array2d(1..n, 1..n, [   
% http://janko.at/Raetsel/Sudoku/505.a.htm
% 58
  _, 11,  _,  _,  _,  7,  _,  _,  4, 13,  _,  _, 14,  1,  3,  _,
 13,  _,  _,  _,  _,  _,  _,  6, 16,  _, 14,  7,  _,  _,  _, 15,
  8,  _,  6, 15,  _,  _,  _,  _, 11,  _,  _,  _,  _,  7,  _,  _,
  7,  _,  _,  _,  9,  1, 13,  _,  _, 15,  8, 12,  _, 11,  _,  _,
  _, 15,  _, 16,  8,  _,  1,  _,  3,  _,  _,  2,  7,  _,  _,  _,
  _,  1,  _,  6,  _,  4,  3,  2,  9,  _,  7,  _, 15,  _,  _, 13,
  3,  _,  _,  7,  _,  _,  5,  _,  _, 16, 11, 13,  8,  _,  _,  _,
  4,  8, 13,  _, 12, 14,  _,  _,  _,  _, 10,  _,  _,  _,  9,  _,
  _,  3,  _,  _,  _, 16,  _,  _,  _,  _, 12,  4,  _,  9, 14, 11,
  _,  _,  _,  1,  4,  8, 12,  _,  _,  3,  _,  _, 10,  _,  _,  2,
  9,  _,  _,  4,  _,  6,  _,  7, 15, 10,  5,  _, 12,  _, 16,  _,
  _,  _,  _, 14, 15,  _,  _,  5,  _,  1,  _, 11,  6,  _, 13,  _,
  _,  _,  5,  _, 10, 11, 16,  _,  _,  7, 15,  9,  _,  _,  _,  6,
  _,  _,  3,  _,  _,  _,  _, 15,  _,  _,  _,  _,  1,  8,  _, 14,
 16,  _,  _,  _, 14,  5,  _,  3,  2,  _,  _,  _,  _,  _,  _,  9,
  _,  6, 15, 11,  _,  _,  8,  9,  _,  _,  3,  _,  _,  _, 12,  _
]);

n = 16;


